crystal structure from VMoWS2 with Hexag
   1.00000000000000     
     8.3085277552478072    4.8287560371795015    0.0000000000000000
    -8.2813043202647716    4.7816265129421236    0.0000000000000000
     0.0000000000000000    0.0000000000000000   30.0000000000000000
   V    Mo   W    S 
     3     3     3    18
Direct
  0.0352635981284406  0.0176109101370947 -0.0013673767795131
  1.0352598551737457  0.3509336315133766 -0.0013663220977285
  0.0352540822172232  0.6842713952530586 -0.0013671137997662
  0.3428543622480763  0.0047447613120268 -0.0008025888096729
  0.3428500912180108  0.3380580975411755 -0.0008029159863451
  0.3428556523216680  0.6713736457379081 -0.0008023935221836
  0.6287806638870796 -0.0189802267622095  0.0020832149806637
  0.6287868709852052  0.3143601397487087  0.0020818475170454
  0.6287861252893024  0.6476940898573643  0.0020821298428396
  0.1101849165460992  0.2217223067804183  0.9470196869882239
  0.2217784695734571  0.1108639164289470  0.0524450364058079
  0.1101848965319499  0.5550496686492861  0.9470195738877909
  0.2217771350022947  0.4441926752683493  0.0524457376044092
  0.1101871399506496  0.8883943906094377  0.9470185531127185
  0.2217855275313621  0.7775327688040262  0.0524435776387719
  0.4403126745779413  0.2201184051734369  0.9439657960831040
  0.5507532710382124  0.1086815252673358  0.0573595886335478
  0.4403126097431472  0.5534482444850614  0.9439657266699907
  0.5507587786664676  0.4420160774475596  0.0573598598665292
  0.4403055372994724  0.8867787261338128  0.9439695489129237
  0.5507509524049670  0.7753424035921519  0.0573606562485666
  0.7793053531042695  0.2229476579503589  0.9562431570689157
  0.8901697712371089  0.1117151833573970  0.0430537626882678
  0.7793071903870213  0.5562854925566650  0.9562418730928912
  0.8901706992189582  0.4450509543380174  0.0430535142832698
  0.7793068185249730  0.8896185972847634  0.9562423753749106
  0.8901714106298764  0.7783890150120431  0.0430533932940130
 
  0.00000000E+00  0.00000000E+00  0.00000000E+00
  0.00000000E+00  0.00000000E+00  0.00000000E+00
  0.00000000E+00  0.00000000E+00  0.00000000E+00
  0.00000000E+00  0.00000000E+00  0.00000000E+00
  0.00000000E+00  0.00000000E+00  0.00000000E+00
  0.00000000E+00  0.00000000E+00  0.00000000E+00
  0.00000000E+00  0.00000000E+00  0.00000000E+00
  0.00000000E+00  0.00000000E+00  0.00000000E+00
  0.00000000E+00  0.00000000E+00  0.00000000E+00
  0.00000000E+00  0.00000000E+00  0.00000000E+00
  0.00000000E+00  0.00000000E+00  0.00000000E+00
  0.00000000E+00  0.00000000E+00  0.00000000E+00
  0.00000000E+00  0.00000000E+00  0.00000000E+00
  0.00000000E+00  0.00000000E+00  0.00000000E+00
  0.00000000E+00  0.00000000E+00  0.00000000E+00
  0.00000000E+00  0.00000000E+00  0.00000000E+00
  0.00000000E+00  0.00000000E+00  0.00000000E+00
  0.00000000E+00  0.00000000E+00  0.00000000E+00
  0.00000000E+00  0.00000000E+00  0.00000000E+00
  0.00000000E+00  0.00000000E+00  0.00000000E+00
  0.00000000E+00  0.00000000E+00  0.00000000E+00
  0.00000000E+00  0.00000000E+00  0.00000000E+00
  0.00000000E+00  0.00000000E+00  0.00000000E+00
  0.00000000E+00  0.00000000E+00  0.00000000E+00
  0.00000000E+00  0.00000000E+00  0.00000000E+00
  0.00000000E+00  0.00000000E+00  0.00000000E+00
  0.00000000E+00  0.00000000E+00  0.00000000E+00
